tsp_instances/TSP50/instance19.tsp
NODE_COORD_SECTION
0 134 57
1 153 181
2 124 7
3 25 190
4 55 156
5 29 20
6 83 99
7 72 186
8 16 195
9 168 179
10 40 30
11 50 140
12 199 33
13 149 156
14 33 47
15 118 60
16 116 93
17 24 115
18 158 20
19 172 175
20 174 106
21 1 179
22 189 103
23 176 15
24 100 13
25 129 136
26 176 77
27 14 2
28 44 64
29 75 33
30 35 22
31 60 130
32 68 43
33 32 60
34 110 193
35 79 141
36 112 34
37 145 178
38 86 42
39 61 106
40 101 194
41 166 79
42 110 120
43 140 16
44 132 66
45 178 9
46 8 186
47 51 178
48 146 67
49 151 103
