tsp_instances/TSP50/instance19.opt.tour
TOUR_SECTION
1
16
17
43
26
14
20
10
2
38
35
41
8
48
4
9
47
22
18
12
5
36
32
40
7
29
34
15
28
6
31
11
33
30
39
37
25
3
44
19
24
46
13
27
42
23
21
50
49
45
-1